(set-option :produce-models true)
(set-logic QF_LRA)
(set-info :notes | Strip-packing problem.|)
(declare-fun x0 () Real)
(declare-fun y0 () Real)
(declare-fun x1 () Real)
(declare-fun y1 () Real)
(declare-fun x2 () Real)
(declare-fun y2 () Real)
(declare-fun x3 () Real)
(declare-fun y3 () Real)
(declare-fun x4 () Real)
(declare-fun y4 () Real)
(declare-fun x5 () Real)
(declare-fun y5 () Real)
(declare-fun x6 () Real)
(declare-fun y6 () Real)
(declare-fun x7 () Real)
(declare-fun y7 () Real)
(declare-fun x8 () Real)
(declare-fun y8 () Real)
(declare-fun x9 () Real)
(declare-fun y9 () Real)
(declare-fun x10 () Real)
(declare-fun y10 () Real)
(declare-fun x11 () Real)
(declare-fun y11 () Real)
(declare-fun z () Real)
(declare-fun c () Real)
(assert (and (= c z) (and (>= x0 0) 
(and (>= y0 0) 
(and (>= x1 0) 
(and (>= y1 0) 
(and (>= x2 0) 
(and (>= y2 0) 
(and (>= x3 0) 
(and (>= y3 0) 
(and (>= x4 0) 
(and (>= y4 0) 
(and (>= x5 0) 
(and (>= y5 0) 
(and (>= x6 0) 
(and (>= y6 0) 
(and (>= x7 0) 
(and (>= y7 0) 
(and (>= x8 0) 
(and (>= y8 0) 
(and (>= x9 0) 
(and (>= y9 0) 
(and (>= x10 0) 
(and (>= y10 0) 
(and (>= x11 0) 
(and (>= y11 0) 
(and (>= z 0) 
(and (>= c 0) 
(and (<= (+ x0 0.10170203) z) 
(and (<= 0.9191853528 y0) 
(and (<= y0 1.73205080757) 
(and (<= x0 (- 3.3533516501 0.10170203)) 
(and (>= x0 0) 
(and (<= (+ x1 0.7619877975) z) 
(and (<= 0.889052472 y1) 
(and (<= y1 1.73205080757) 
(and (<= x1 (- 3.3533516501 0.7619877975)) 
(and (>= x1 0) 
(and (<= (+ x2 0.2749346314) z) 
(and (<= 0.8428428384 y2) 
(and (<= y2 1.73205080757) 
(and (<= x2 (- 3.3533516501 0.2749346314)) 
(and (>= x2 0) 
(and (<= (+ x3 0.5369926422) z) 
(and (<= 0.6266880686 y3) 
(and (<= y3 1.73205080757) 
(and (<= x3 (- 3.3533516501 0.5369926422)) 
(and (>= x3 0) 
(and (<= (+ x4 0.9591042345) z) 
(and (<= 0.6209803956 y4) 
(and (<= y4 1.73205080757) 
(and (<= x4 (- 3.3533516501 0.9591042345)) 
(and (>= x4 0) 
(and (<= (+ x5 0.2965196077) z) 
(and (<= 0.5479790795 y5) 
(and (<= y5 1.73205080757) 
(and (<= x5 (- 3.3533516501 0.2965196077)) 
(and (>= x5 0) 
(and (<= (+ x6 0.9935649459) z) 
(and (<= 0.4972179199 y6) 
(and (<= y6 1.73205080757) 
(and (<= x6 (- 3.3533516501 0.9935649459)) 
(and (>= x6 0) 
(and (<= (+ x7 0.4457295318) z) 
(and (<= 0.3833499573 y7) 
(and (<= y7 1.73205080757) 
(and (<= x7 (- 3.3533516501 0.4457295318)) 
(and (>= x7 0) 
(and (<= (+ x8 0.6163351551) z) 
(and (<= 0.2539047831 y8) 
(and (<= y8 1.73205080757) 
(and (<= x8 (- 3.3533516501 0.6163351551)) 
(and (>= x8 0) 
(and (<= (+ x9 0.4095715429) z) 
(and (<= 0.2257905328 y9) 
(and (<= y9 1.73205080757) 
(and (<= x9 (- 3.3533516501 0.4095715429)) 
(and (>= x9 0) 
(and (<= (+ x10 0.8614605875) z) 
(and (<= 0.13343815 y10) 
(and (<= y10 1.73205080757) 
(and (<= x10 (- 3.3533516501 0.8614605875)) 
(and (>= x10 0) 
(and (<= (+ x11 0.4937309483) z) 
(and (<= 0.0761702136 y11) 
(and (<= y11 1.73205080757) 
(and (<= x11 (- 3.3533516501 0.4937309483)) 
(and (>= x11 0) 
(and (<= c 3.3533516501) 
(and (or (<= (+ x0 0.10170203) x1) (or (<= (+ x1 0.7619877975) x0) (or (>= (- y0 0.9191853528) y1) (or (>= (- y1 0.889052472) y0))))) 
(and (or (<= (+ x0 0.10170203) x2) (or (<= (+ x2 0.2749346314) x0) (or (>= (- y0 0.9191853528) y2) (or (>= (- y2 0.8428428384) y0))))) 
(and (or (<= (+ x0 0.10170203) x3) (or (<= (+ x3 0.5369926422) x0) (or (>= (- y0 0.9191853528) y3) (or (>= (- y3 0.6266880686) y0))))) 
(and (or (<= (+ x0 0.10170203) x4) (or (<= (+ x4 0.9591042345) x0) (or (>= (- y0 0.9191853528) y4) (or (>= (- y4 0.6209803956) y0))))) 
(and (or (<= (+ x0 0.10170203) x5) (or (<= (+ x5 0.2965196077) x0) (or (>= (- y0 0.9191853528) y5) (or (>= (- y5 0.5479790795) y0))))) 
(and (or (<= (+ x0 0.10170203) x6) (or (<= (+ x6 0.9935649459) x0) (or (>= (- y0 0.9191853528) y6) (or (>= (- y6 0.4972179199) y0))))) 
(and (or (<= (+ x0 0.10170203) x7) (or (<= (+ x7 0.4457295318) x0) (or (>= (- y0 0.9191853528) y7) (or (>= (- y7 0.3833499573) y0))))) 
(and (or (<= (+ x0 0.10170203) x8) (or (<= (+ x8 0.6163351551) x0) (or (>= (- y0 0.9191853528) y8) (or (>= (- y8 0.2539047831) y0))))) 
(and (or (<= (+ x0 0.10170203) x9) (or (<= (+ x9 0.4095715429) x0) (or (>= (- y0 0.9191853528) y9) (or (>= (- y9 0.2257905328) y0))))) 
(and (or (<= (+ x0 0.10170203) x10) (or (<= (+ x10 0.8614605875) x0) (or (>= (- y0 0.9191853528) y10) (or (>= (- y10 0.13343815) y0))))) 
(and (or (<= (+ x0 0.10170203) x11) (or (<= (+ x11 0.4937309483) x0) (or (>= (- y0 0.9191853528) y11) (or (>= (- y11 0.0761702136) y0))))) 
(and (or (<= (+ x1 0.7619877975) x2) (or (<= (+ x2 0.2749346314) x1) (or (>= (- y1 0.889052472) y2) (or (>= (- y2 0.8428428384) y1))))) 
(and (or (<= (+ x1 0.7619877975) x3) (or (<= (+ x3 0.5369926422) x1) (or (>= (- y1 0.889052472) y3) (or (>= (- y3 0.6266880686) y1))))) 
(and (or (<= (+ x1 0.7619877975) x4) (or (<= (+ x4 0.9591042345) x1) (or (>= (- y1 0.889052472) y4) (or (>= (- y4 0.6209803956) y1))))) 
(and (or (<= (+ x1 0.7619877975) x5) (or (<= (+ x5 0.2965196077) x1) (or (>= (- y1 0.889052472) y5) (or (>= (- y5 0.5479790795) y1))))) 
(and (or (<= (+ x1 0.7619877975) x6) (or (<= (+ x6 0.9935649459) x1) (or (>= (- y1 0.889052472) y6) (or (>= (- y6 0.4972179199) y1))))) 
(and (or (<= (+ x1 0.7619877975) x7) (or (<= (+ x7 0.4457295318) x1) (or (>= (- y1 0.889052472) y7) (or (>= (- y7 0.3833499573) y1))))) 
(and (or (<= (+ x1 0.7619877975) x8) (or (<= (+ x8 0.6163351551) x1) (or (>= (- y1 0.889052472) y8) (or (>= (- y8 0.2539047831) y1))))) 
(and (or (<= (+ x1 0.7619877975) x9) (or (<= (+ x9 0.4095715429) x1) (or (>= (- y1 0.889052472) y9) (or (>= (- y9 0.2257905328) y1))))) 
(and (or (<= (+ x1 0.7619877975) x10) (or (<= (+ x10 0.8614605875) x1) (or (>= (- y1 0.889052472) y10) (or (>= (- y10 0.13343815) y1))))) 
(and (or (<= (+ x1 0.7619877975) x11) (or (<= (+ x11 0.4937309483) x1) (or (>= (- y1 0.889052472) y11) (or (>= (- y11 0.0761702136) y1))))) 
(and (or (<= (+ x2 0.2749346314) x3) (or (<= (+ x3 0.5369926422) x2) (or (>= (- y2 0.8428428384) y3) (or (>= (- y3 0.6266880686) y2))))) 
(and (or (<= (+ x2 0.2749346314) x4) (or (<= (+ x4 0.9591042345) x2) (or (>= (- y2 0.8428428384) y4) (or (>= (- y4 0.6209803956) y2))))) 
(and (or (<= (+ x2 0.2749346314) x5) (or (<= (+ x5 0.2965196077) x2) (or (>= (- y2 0.8428428384) y5) (or (>= (- y5 0.5479790795) y2))))) 
(and (or (<= (+ x2 0.2749346314) x6) (or (<= (+ x6 0.9935649459) x2) (or (>= (- y2 0.8428428384) y6) (or (>= (- y6 0.4972179199) y2))))) 
(and (or (<= (+ x2 0.2749346314) x7) (or (<= (+ x7 0.4457295318) x2) (or (>= (- y2 0.8428428384) y7) (or (>= (- y7 0.3833499573) y2))))) 
(and (or (<= (+ x2 0.2749346314) x8) (or (<= (+ x8 0.6163351551) x2) (or (>= (- y2 0.8428428384) y8) (or (>= (- y8 0.2539047831) y2))))) 
(and (or (<= (+ x2 0.2749346314) x9) (or (<= (+ x9 0.4095715429) x2) (or (>= (- y2 0.8428428384) y9) (or (>= (- y9 0.2257905328) y2))))) 
(and (or (<= (+ x2 0.2749346314) x10) (or (<= (+ x10 0.8614605875) x2) (or (>= (- y2 0.8428428384) y10) (or (>= (- y10 0.13343815) y2))))) 
(and (or (<= (+ x2 0.2749346314) x11) (or (<= (+ x11 0.4937309483) x2) (or (>= (- y2 0.8428428384) y11) (or (>= (- y11 0.0761702136) y2))))) 
(and (or (<= (+ x3 0.5369926422) x4) (or (<= (+ x4 0.9591042345) x3) (or (>= (- y3 0.6266880686) y4) (or (>= (- y4 0.6209803956) y3))))) 
(and (or (<= (+ x3 0.5369926422) x5) (or (<= (+ x5 0.2965196077) x3) (or (>= (- y3 0.6266880686) y5) (or (>= (- y5 0.5479790795) y3))))) 
(and (or (<= (+ x3 0.5369926422) x6) (or (<= (+ x6 0.9935649459) x3) (or (>= (- y3 0.6266880686) y6) (or (>= (- y6 0.4972179199) y3))))) 
(and (or (<= (+ x3 0.5369926422) x7) (or (<= (+ x7 0.4457295318) x3) (or (>= (- y3 0.6266880686) y7) (or (>= (- y7 0.3833499573) y3))))) 
(and (or (<= (+ x3 0.5369926422) x8) (or (<= (+ x8 0.6163351551) x3) (or (>= (- y3 0.6266880686) y8) (or (>= (- y8 0.2539047831) y3))))) 
(and (or (<= (+ x3 0.5369926422) x9) (or (<= (+ x9 0.4095715429) x3) (or (>= (- y3 0.6266880686) y9) (or (>= (- y9 0.2257905328) y3))))) 
(and (or (<= (+ x3 0.5369926422) x10) (or (<= (+ x10 0.8614605875) x3) (or (>= (- y3 0.6266880686) y10) (or (>= (- y10 0.13343815) y3))))) 
(and (or (<= (+ x3 0.5369926422) x11) (or (<= (+ x11 0.4937309483) x3) (or (>= (- y3 0.6266880686) y11) (or (>= (- y11 0.0761702136) y3))))) 
(and (or (<= (+ x4 0.9591042345) x5) (or (<= (+ x5 0.2965196077) x4) (or (>= (- y4 0.6209803956) y5) (or (>= (- y5 0.5479790795) y4))))) 
(and (or (<= (+ x4 0.9591042345) x6) (or (<= (+ x6 0.9935649459) x4) (or (>= (- y4 0.6209803956) y6) (or (>= (- y6 0.4972179199) y4))))) 
(and (or (<= (+ x4 0.9591042345) x7) (or (<= (+ x7 0.4457295318) x4) (or (>= (- y4 0.6209803956) y7) (or (>= (- y7 0.3833499573) y4))))) 
(and (or (<= (+ x4 0.9591042345) x8) (or (<= (+ x8 0.6163351551) x4) (or (>= (- y4 0.6209803956) y8) (or (>= (- y8 0.2539047831) y4))))) 
(and (or (<= (+ x4 0.9591042345) x9) (or (<= (+ x9 0.4095715429) x4) (or (>= (- y4 0.6209803956) y9) (or (>= (- y9 0.2257905328) y4))))) 
(and (or (<= (+ x4 0.9591042345) x10) (or (<= (+ x10 0.8614605875) x4) (or (>= (- y4 0.6209803956) y10) (or (>= (- y10 0.13343815) y4))))) 
(and (or (<= (+ x4 0.9591042345) x11) (or (<= (+ x11 0.4937309483) x4) (or (>= (- y4 0.6209803956) y11) (or (>= (- y11 0.0761702136) y4))))) 
(and (or (<= (+ x5 0.2965196077) x6) (or (<= (+ x6 0.9935649459) x5) (or (>= (- y5 0.5479790795) y6) (or (>= (- y6 0.4972179199) y5))))) 
(and (or (<= (+ x5 0.2965196077) x7) (or (<= (+ x7 0.4457295318) x5) (or (>= (- y5 0.5479790795) y7) (or (>= (- y7 0.3833499573) y5))))) 
(and (or (<= (+ x5 0.2965196077) x8) (or (<= (+ x8 0.6163351551) x5) (or (>= (- y5 0.5479790795) y8) (or (>= (- y8 0.2539047831) y5))))) 
(and (or (<= (+ x5 0.2965196077) x9) (or (<= (+ x9 0.4095715429) x5) (or (>= (- y5 0.5479790795) y9) (or (>= (- y9 0.2257905328) y5))))) 
(and (or (<= (+ x5 0.2965196077) x10) (or (<= (+ x10 0.8614605875) x5) (or (>= (- y5 0.5479790795) y10) (or (>= (- y10 0.13343815) y5))))) 
(and (or (<= (+ x5 0.2965196077) x11) (or (<= (+ x11 0.4937309483) x5) (or (>= (- y5 0.5479790795) y11) (or (>= (- y11 0.0761702136) y5))))) 
(and (or (<= (+ x6 0.9935649459) x7) (or (<= (+ x7 0.4457295318) x6) (or (>= (- y6 0.4972179199) y7) (or (>= (- y7 0.3833499573) y6))))) 
(and (or (<= (+ x6 0.9935649459) x8) (or (<= (+ x8 0.6163351551) x6) (or (>= (- y6 0.4972179199) y8) (or (>= (- y8 0.2539047831) y6))))) 
(and (or (<= (+ x6 0.9935649459) x9) (or (<= (+ x9 0.4095715429) x6) (or (>= (- y6 0.4972179199) y9) (or (>= (- y9 0.2257905328) y6))))) 
(and (or (<= (+ x6 0.9935649459) x10) (or (<= (+ x10 0.8614605875) x6) (or (>= (- y6 0.4972179199) y10) (or (>= (- y10 0.13343815) y6))))) 
(and (or (<= (+ x6 0.9935649459) x11) (or (<= (+ x11 0.4937309483) x6) (or (>= (- y6 0.4972179199) y11) (or (>= (- y11 0.0761702136) y6))))) 
(and (or (<= (+ x7 0.4457295318) x8) (or (<= (+ x8 0.6163351551) x7) (or (>= (- y7 0.3833499573) y8) (or (>= (- y8 0.2539047831) y7))))) 
(and (or (<= (+ x7 0.4457295318) x9) (or (<= (+ x9 0.4095715429) x7) (or (>= (- y7 0.3833499573) y9) (or (>= (- y9 0.2257905328) y7))))) 
(and (or (<= (+ x7 0.4457295318) x10) (or (<= (+ x10 0.8614605875) x7) (or (>= (- y7 0.3833499573) y10) (or (>= (- y10 0.13343815) y7))))) 
(and (or (<= (+ x7 0.4457295318) x11) (or (<= (+ x11 0.4937309483) x7) (or (>= (- y7 0.3833499573) y11) (or (>= (- y11 0.0761702136) y7))))) 
(and (or (<= (+ x8 0.6163351551) x9) (or (<= (+ x9 0.4095715429) x8) (or (>= (- y8 0.2539047831) y9) (or (>= (- y9 0.2257905328) y8))))) 
(and (or (<= (+ x8 0.6163351551) x10) (or (<= (+ x10 0.8614605875) x8) (or (>= (- y8 0.2539047831) y10) (or (>= (- y10 0.13343815) y8))))) 
(and (or (<= (+ x8 0.6163351551) x11) (or (<= (+ x11 0.4937309483) x8) (or (>= (- y8 0.2539047831) y11) (or (>= (- y11 0.0761702136) y8))))) 
(and (or (<= (+ x9 0.4095715429) x10) (or (<= (+ x10 0.8614605875) x9) (or (>= (- y9 0.2257905328) y10) (or (>= (- y10 0.13343815) y9))))) 
(and (or (<= (+ x9 0.4095715429) x11) (or (<= (+ x11 0.4937309483) x9) (or (>= (- y9 0.2257905328) y11) (or (>= (- y11 0.0761702136) y9))))) 
(and (or (<= (+ x10 0.8614605875) x11) (or (<= (+ x11 0.4937309483) x10) (or (>= (- y10 0.13343815) y11) (or (>= (- y11 0.0761702136) y10))))) )))))))))))))))))))))))))))))))))))))))))))))))))))))))))))))))))))))))))))))))))))))))))))))))))))))))))))))))))))))))))))))))))))))))))))))))))))))))))))
(minimize c)
(check-sat)
(get-objectives)
(exit)
